\ Model ProductsManufactuing
\ LP format - for model browsing. Use MPS format to capture full model detail.
Minimize
  2000 X[0,0] + 2000 X[0,1] + 2500 X[0,2] + 2500 X[0,3] + 2500 X[0,4]
   + 3000 X[0,5] + 3000 X[0,6] + 3000 X[0,7] + 2500 X[0,8] + 2500 X[0,9]
   + 2000 X[0,10] + 2000 X[0,11] + 2000 X[1,0] + 2000 X[1,1] + 2500 X[1,2]
   + 2500 X[1,3] + 2500 X[1,4] + 3000 X[1,5] + 3000 X[1,6] + 3000 X[1,7]
   + 2500 X[1,8] + 2500 X[1,9] + 2000 X[1,10] + 2000 X[1,11] + 2000 X[2,0]
   + 2000 X[2,1] + 2500 X[2,2] + 2500 X[2,3] + 2500 X[2,4] + 3000 X[2,5]
   + 3000 X[2,6] + 3000 X[2,7] + 2500 X[2,8] + 2500 X[2,9] + 2000 X[2,10]
   + 2000 X[2,11] + 6 R[0,0] + 6 R[0,1] + 6 R[0,2] + 6 R[0,3] + 6 R[0,4]
   + 6 R[0,5] + 6 R[0,6] + 6 R[0,7] + 6 R[0,8] + 6 R[0,9] + 6 R[0,10]
   + 6 R[0,11] + 8 R[1,0] + 8 R[1,1] + 8 R[1,2] + 8 R[1,3] + 8 R[1,4]
   + 8 R[1,5] + 8 R[1,6] + 8 R[1,7] + 8 R[1,8] + 8 R[1,9] + 8 R[1,10]
   + 8 R[1,11] + 10 R[2,0] + 10 R[2,1] + 10 R[2,2] + 10 R[2,3] + 10 R[2,4]
   + 10 R[2,5] + 10 R[2,6] + 10 R[2,7] + 10 R[2,8] + 10 R[2,9] + 10 R[2,10]
   + 10 R[2,11] + 2000 B[0,0] + 2000 B[0,1] + 2000 B[0,2] + 2000 B[0,3]
   + 2000 B[0,4] + 2000 B[0,5] + 2000 B[0,6] + 2000 B[0,7] + 2000 B[0,8]
   + 2000 B[0,9] + 2000 B[0,10] + 2000 B[0,11] + 2000 B[1,0] + 2000 B[1,1]
   + 2000 B[1,2] + 2000 B[1,3] + 2000 B[1,4] + 2000 B[1,5] + 2000 B[1,6]
   + 2000 B[1,7] + 2000 B[1,8] + 2000 B[1,9] + 2000 B[1,10] + 2000 B[1,11]
   + 2000 B[2,0] + 2000 B[2,1] + 2000 B[2,2] + 2000 B[2,3] + 2000 B[2,4]
   + 2000 B[2,5] + 2000 B[2,6] + 2000 B[2,7] + 2000 B[2,8] + 2000 B[2,9]
   + 2000 B[2,10] + 2000 B[2,11] + 5000 A[0] + 5000 A[1] + 5000 A[2]
   + 5000 A[3] + 5000 A[4] + 5000 A[5] + 5000 A[6] + 5000 A[7] + 5000 A[8]
   + 5000 A[9] + 5000 A[10] + 5000 A[11]
Subject To
 con1[0,0]-: - 15 X[0,0] + R[0,0] = -750
 con1[0,1]-: - 15 X[0,1] - R[0,0] + R[0,1] = -650
 con1[0,2]-: - 15 X[0,2] - R[0,1] + R[0,2] = -600
 con1[0,3]-: - 15 X[0,3] - R[0,2] + R[0,3] = -500
 con1[0,4]-: - 15 X[0,4] - R[0,3] + R[0,4] = -130.3
 con1[0,5]-: - 15 X[0,5] - R[0,4] + R[0,5] = -650
 con1[0,6]-: - 15 X[0,6] - R[0,5] + R[0,6] = -600
 con1[0,7]-: - 15 X[0,7] - R[0,6] + R[0,7] = -750
 con1[0,8]-: - 15 X[0,8] - R[0,7] + R[0,8] = -650
 con1[0,9]-: - 15 X[0,9] - R[0,8] + R[0,9] = -600
 con1[0,10]-: - 15 X[0,10] - R[0,9] + R[0,10] = -500
 con1[0,11]-: - 15 X[0,11] - R[0,10] + R[0,11] = -550
 con1[1,0]-: - 20 X[1,0] + R[1,0] = -550
 con1[1,1]-: - 20 X[1,1] - R[1,0] + R[1,1] = -500
 con1[1,2]-: - 20 X[1,2] - R[1,1] + R[1,2] = -450
 con1[1,3]-: - 20 X[1,3] - R[1,2] + R[1,3] = -275
 con1[1,4]-: - 20 X[1,4] - R[1,3] + R[1,4] = -350
 con1[1,5]-: - 20 X[1,5] - R[1,4] + R[1,5] = -300
 con1[1,6]-: - 20 X[1,6] - R[1,5] + R[1,6] = -500
 con1[1,7]-: - 20 X[1,7] - R[1,6] + R[1,7] = -600
 con1[1,8]-: - 20 X[1,8] - R[1,7] + R[1,8] = -500
 con1[1,9]-: - 20 X[1,9] - R[1,8] + R[1,9] = -400.6
 con1[1,10]-: - 20 X[1,10] - R[1,9] + R[1,10] = -300
 con1[1,11]-: - 20 X[1,11] - R[1,10] + R[1,11] = -250
 con1[2,0]-: - 10 X[2,0] + R[2,0] = -550
 con1[2,1]-: - 10 X[2,1] - R[2,0] + R[2,1] = -500
 con1[2,2]-: - 10 X[2,2] - R[2,1] + R[2,2] = -500
 con1[2,3]-: - 10 X[2,3] - R[2,2] + R[2,3] = -320.5
 con1[2,4]-: - 10 X[2,4] - R[2,3] + R[2,4] = -300
 con1[2,5]-: - 10 X[2,5] - R[2,4] + R[2,5] = -150.2
 con1[2,6]-: - 10 X[2,6] - R[2,5] + R[2,6] = -225
 con1[2,7]-: - 10 X[2,7] - R[2,6] + R[2,7] = -500
 con1[2,8]-: - 10 X[2,8] - R[2,7] + R[2,8] = -450
 con1[2,9]-: - 10 X[2,9] - R[2,8] + R[2,9] = -350
 con1[2,10]-: - 10 X[2,10] - R[2,9] + R[2,10] = -300
 con1[2,11]-: - 10 X[2,11] - R[2,10] + R[2,11] = -350
 con2[0,0]-: X[0,0] + X[1,0] + X[2,0] - N[0,0] - N[1,0] - N[2,0] + B[0,0]
   + B[1,0] + B[2,0] = 0
 con2[0,1]-: - X[0,0] + X[0,1] - X[1,0] + X[1,1] - X[2,0] + X[2,1] - N[0,1]
   - N[1,1] - N[2,1] + B[0,1] + B[1,1] + B[2,1] = 0
 con2[0,2]-: - X[0,1] + X[0,2] - X[1,1] + X[1,2] - X[2,1] + X[2,2] - N[0,2]
   - N[1,2] - N[2,2] + B[0,2] + B[1,2] + B[2,2] = 0
 con2[0,3]-: - X[0,2] + X[0,3] - X[1,2] + X[1,3] - X[2,2] + X[2,3] - N[0,3]
   - N[1,3] - N[2,3] + B[0,3] + B[1,3] + B[2,3] = 0
 con2[0,4]-: - X[0,3] + X[0,4] - X[1,3] + X[1,4] - X[2,3] + X[2,4] - N[0,4]
   - N[1,4] - N[2,4] + B[0,4] + B[1,4] + B[2,4] = 0
 con2[0,5]-: - X[0,4] + X[0,5] - X[1,4] + X[1,5] - X[2,4] + X[2,5] - N[0,5]
   - N[1,5] - N[2,5] + B[0,5] + B[1,5] + B[2,5] = 0
 con2[0,6]-: - X[0,5] + X[0,6] - X[1,5] + X[1,6] - X[2,5] + X[2,6] - N[0,6]
   - N[1,6] - N[2,6] + B[0,6] + B[1,6] + B[2,6] = 0
 con2[0,7]-: - X[0,6] + X[0,7] - X[1,6] + X[1,7] - X[2,6] + X[2,7] - N[0,7]
   - N[1,7] - N[2,7] + B[0,7] + B[1,7] + B[2,7] = 0
 con2[0,8]-: - X[0,7] + X[0,8] - X[1,7] + X[1,8] - X[2,7] + X[2,8] - N[0,8]
   - N[1,8] - N[2,8] + B[0,8] + B[1,8] + B[2,8] = 0
 con2[0,9]-: - X[0,8] + X[0,9] - X[1,8] + X[1,9] - X[2,8] + X[2,9] - N[0,9]
   - N[1,9] - N[2,9] + B[0,9] + B[1,9] + B[2,9] = 0
 con2[0,10]-: - X[0,9] + X[0,10] - X[1,9] + X[1,10] - X[2,9] + X[2,10]
   - N[0,10] - N[1,10] - N[2,10] + B[0,10] + B[1,10] + B[2,10] = 0
 con2[0,11]-: - X[0,10] + X[0,11] - X[1,10] + X[1,11] - X[2,10] + X[2,11]
   - N[0,11] - N[1,11] - N[2,11] + B[0,11] + B[1,11] + B[2,11] = 0
 con2[1,0]-: X[0,0] + X[1,0] + X[2,0] - N[0,0] - N[1,0] - N[2,0] + B[0,0]
   + B[1,0] + B[2,0] = 0
 con2[1,1]-: - X[0,0] + X[0,1] - X[1,0] + X[1,1] - X[2,0] + X[2,1] - N[0,1]
   - N[1,1] - N[2,1] + B[0,1] + B[1,1] + B[2,1] = 0
 con2[1,2]-: - X[0,1] + X[0,2] - X[1,1] + X[1,2] - X[2,1] + X[2,2] - N[0,2]
   - N[1,2] - N[2,2] + B[0,2] + B[1,2] + B[2,2] = 0
 con2[1,3]-: - X[0,2] + X[0,3] - X[1,2] + X[1,3] - X[2,2] + X[2,3] - N[0,3]
   - N[1,3] - N[2,3] + B[0,3] + B[1,3] + B[2,3] = 0
 con2[1,4]-: - X[0,3] + X[0,4] - X[1,3] + X[1,4] - X[2,3] + X[2,4] - N[0,4]
   - N[1,4] - N[2,4] + B[0,4] + B[1,4] + B[2,4] = 0
 con2[1,5]-: - X[0,4] + X[0,5] - X[1,4] + X[1,5] - X[2,4] + X[2,5] - N[0,5]
   - N[1,5] - N[2,5] + B[0,5] + B[1,5] + B[2,5] = 0
 con2[1,6]-: - X[0,5] + X[0,6] - X[1,5] + X[1,6] - X[2,5] + X[2,6] - N[0,6]
   - N[1,6] - N[2,6] + B[0,6] + B[1,6] + B[2,6] = 0
 con2[1,7]-: - X[0,6] + X[0,7] - X[1,6] + X[1,7] - X[2,6] + X[2,7] - N[0,7]
   - N[1,7] - N[2,7] + B[0,7] + B[1,7] + B[2,7] = 0
 con2[1,8]-: - X[0,7] + X[0,8] - X[1,7] + X[1,8] - X[2,7] + X[2,8] - N[0,8]
   - N[1,8] - N[2,8] + B[0,8] + B[1,8] + B[2,8] = 0
 con2[1,9]-: - X[0,8] + X[0,9] - X[1,8] + X[1,9] - X[2,8] + X[2,9] - N[0,9]
   - N[1,9] - N[2,9] + B[0,9] + B[1,9] + B[2,9] = 0
 con2[1,10]-: - X[0,9] + X[0,10] - X[1,9] + X[1,10] - X[2,9] + X[2,10]
   - N[0,10] - N[1,10] - N[2,10] + B[0,10] + B[1,10] + B[2,10] = 0
 con2[1,11]-: - X[0,10] + X[0,11] - X[1,10] + X[1,11] - X[2,10] + X[2,11]
   - N[0,11] - N[1,11] - N[2,11] + B[0,11] + B[1,11] + B[2,11] = 0
 con2[2,0]-: X[0,0] + X[1,0] + X[2,0] - N[0,0] - N[1,0] - N[2,0] + B[0,0]
   + B[1,0] + B[2,0] = 0
 con2[2,1]-: - X[0,0] + X[0,1] - X[1,0] + X[1,1] - X[2,0] + X[2,1] - N[0,1]
   - N[1,1] - N[2,1] + B[0,1] + B[1,1] + B[2,1] = 0
 con2[2,2]-: - X[0,1] + X[0,2] - X[1,1] + X[1,2] - X[2,1] + X[2,2] - N[0,2]
   - N[1,2] - N[2,2] + B[0,2] + B[1,2] + B[2,2] = 0
 con2[2,3]-: - X[0,2] + X[0,3] - X[1,2] + X[1,3] - X[2,2] + X[2,3] - N[0,3]
   - N[1,3] - N[2,3] + B[0,3] + B[1,3] + B[2,3] = 0
 con2[2,4]-: - X[0,3] + X[0,4] - X[1,3] + X[1,4] - X[2,3] + X[2,4] - N[0,4]
   - N[1,4] - N[2,4] + B[0,4] + B[1,4] + B[2,4] = 0
 con2[2,5]-: - X[0,4] + X[0,5] - X[1,4] + X[1,5] - X[2,4] + X[2,5] - N[0,5]
   - N[1,5] - N[2,5] + B[0,5] + B[1,5] + B[2,5] = 0
 con2[2,6]-: - X[0,5] + X[0,6] - X[1,5] + X[1,6] - X[2,5] + X[2,6] - N[0,6]
   - N[1,6] - N[2,6] + B[0,6] + B[1,6] + B[2,6] = 0
 con2[2,7]-: - X[0,6] + X[0,7] - X[1,6] + X[1,7] - X[2,6] + X[2,7] - N[0,7]
   - N[1,7] - N[2,7] + B[0,7] + B[1,7] + B[2,7] = 0
 con2[2,8]-: - X[0,7] + X[0,8] - X[1,7] + X[1,8] - X[2,7] + X[2,8] - N[0,8]
   - N[1,8] - N[2,8] + B[0,8] + B[1,8] + B[2,8] = 0
 con2[2,9]-: - X[0,8] + X[0,9] - X[1,8] + X[1,9] - X[2,8] + X[2,9] - N[0,9]
   - N[1,9] - N[2,9] + B[0,9] + B[1,9] + B[2,9] = 0
 con2[2,10]-: - X[0,9] + X[0,10] - X[1,9] + X[1,10] - X[2,9] + X[2,10]
   - N[0,10] - N[1,10] - N[2,10] + B[0,10] + B[1,10] + B[2,10] = 0
 con2[2,11]-: - X[0,10] + X[0,11] - X[1,10] + X[1,11] - X[2,10] + X[2,11]
   - N[0,11] - N[1,11] - N[2,11] + B[0,11] + B[1,11] + B[2,11] = 0
 con3[0,0]-: M[0,0] + M[1,0] + M[2,0] = 0
 con3[0,1]-: M[0,1] + M[1,1] + M[2,1] = 0
 con3[0,2]-: M[0,2] + M[1,2] + M[2,2] = 0
 con3[0,3]-: M[0,3] + M[1,3] + M[2,3] = 0
 con3[0,4]-: M[0,4] + M[1,4] + M[2,4] = 0
 con3[0,5]-: M[0,5] + M[1,5] + M[2,5] = 0
 con3[0,6]-: M[0,6] + M[1,6] + M[2,6] = 0
 con3[0,7]-: M[0,7] + M[1,7] + M[2,7] = 0
 con3[0,8]-: M[0,8] + M[1,8] + M[2,8] = 0
 con3[0,9]-: M[0,9] + M[1,9] + M[2,9] = 0
 con3[0,10]-: M[0,10] + M[1,10] + M[2,10] = 0
 con3[0,11]-: M[0,11] + M[1,11] + M[2,11] = 0
 con3[1,0]-: M[0,0] + M[1,0] + M[2,0] = 0
 con3[1,1]-: M[0,1] + M[1,1] + M[2,1] = 0
 con3[1,2]-: M[0,2] + M[1,2] + M[2,2] = 0
 con3[1,3]-: M[0,3] + M[1,3] + M[2,3] = 0
 con3[1,4]-: M[0,4] + M[1,4] + M[2,4] = 0
 con3[1,5]-: M[0,5] + M[1,5] + M[2,5] = 0
 con3[1,6]-: M[0,6] + M[1,6] + M[2,6] = 0
 con3[1,7]-: M[0,7] + M[1,7] + M[2,7] = 0
 con3[1,8]-: M[0,8] + M[1,8] + M[2,8] = 0
 con3[1,9]-: M[0,9] + M[1,9] + M[2,9] = 0
 con3[1,10]-: M[0,10] + M[1,10] + M[2,10] = 0
 con3[1,11]-: M[0,11] + M[1,11] + M[2,11] = 0
 con3[2,0]-: M[0,0] + M[1,0] + M[2,0] = 0
 con3[2,1]-: M[0,1] + M[1,1] + M[2,1] = 0
 con3[2,2]-: M[0,2] + M[1,2] + M[2,2] = 0
 con3[2,3]-: M[0,3] + M[1,3] + M[2,3] = 0
 con3[2,4]-: M[0,4] + M[1,4] + M[2,4] = 0
 con3[2,5]-: M[0,5] + M[1,5] + M[2,5] = 0
 con3[2,6]-: M[0,6] + M[1,6] + M[2,6] = 0
 con3[2,7]-: M[0,7] + M[1,7] + M[2,7] = 0
 con3[2,8]-: M[0,8] + M[1,8] + M[2,8] = 0
 con3[2,9]-: M[0,9] + M[1,9] + M[2,9] = 0
 con3[2,10]-: M[0,10] + M[1,10] + M[2,10] = 0
 con3[2,11]-: M[0,11] + M[1,11] + M[2,11] = 0
 con4[0,0]-: - M[0,0] - M[1,0] - M[2,0] + B[0,0] + B[1,0] + B[2,0] <= 0
 con4[0,1]-: - M[0,1] - M[1,1] - M[2,1] + B[0,1] + B[1,1] + B[2,1] <= 0
 con4[0,2]-: - M[0,2] - M[1,2] - M[2,2] + B[0,2] + B[1,2] + B[2,2] <= 0
 con4[0,3]-: - M[0,3] - M[1,3] - M[2,3] + B[0,3] + B[1,3] + B[2,3] <= 0
 con4[0,4]-: - M[0,4] - M[1,4] - M[2,4] + B[0,4] + B[1,4] + B[2,4] <= 0
 con4[0,5]-: - M[0,5] - M[1,5] - M[2,5] + B[0,5] + B[1,5] + B[2,5] <= 0
 con4[0,6]-: - M[0,6] - M[1,6] - M[2,6] + B[0,6] + B[1,6] + B[2,6] <= 0
 con4[0,7]-: - M[0,7] - M[1,7] - M[2,7] + B[0,7] + B[1,7] + B[2,7] <= 0
 con4[0,8]-: - M[0,8] - M[1,8] - M[2,8] + B[0,8] + B[1,8] + B[2,8] <= 0
 con4[0,9]-: - M[0,9] - M[1,9] - M[2,9] + B[0,9] + B[1,9] + B[2,9] <= 0
 con4[0,10]-: - M[0,10] - M[1,10] - M[2,10] + B[0,10] + B[1,10] + B[2,10]
   <= 0
 con4[0,11]-: - M[0,11] - M[1,11] - M[2,11] + B[0,11] + B[1,11] + B[2,11]
   <= 0
 con4[1,0]-: - M[0,0] - M[1,0] - M[2,0] + B[0,0] + B[1,0] + B[2,0] <= 0
 con4[1,1]-: - M[0,1] - M[1,1] - M[2,1] + B[0,1] + B[1,1] + B[2,1] <= 0
 con4[1,2]-: - M[0,2] - M[1,2] - M[2,2] + B[0,2] + B[1,2] + B[2,2] <= 0
 con4[1,3]-: - M[0,3] - M[1,3] - M[2,3] + B[0,3] + B[1,3] + B[2,3] <= 0
 con4[1,4]-: - M[0,4] - M[1,4] - M[2,4] + B[0,4] + B[1,4] + B[2,4] <= 0
 con4[1,5]-: - M[0,5] - M[1,5] - M[2,5] + B[0,5] + B[1,5] + B[2,5] <= 0
 con4[1,6]-: - M[0,6] - M[1,6] - M[2,6] + B[0,6] + B[1,6] + B[2,6] <= 0
 con4[1,7]-: - M[0,7] - M[1,7] - M[2,7] + B[0,7] + B[1,7] + B[2,7] <= 0
 con4[1,8]-: - M[0,8] - M[1,8] - M[2,8] + B[0,8] + B[1,8] + B[2,8] <= 0
 con4[1,9]-: - M[0,9] - M[1,9] - M[2,9] + B[0,9] + B[1,9] + B[2,9] <= 0
 con4[1,10]-: - M[0,10] - M[1,10] - M[2,10] + B[0,10] + B[1,10] + B[2,10]
   <= 0
 con4[1,11]-: - M[0,11] - M[1,11] - M[2,11] + B[0,11] + B[1,11] + B[2,11]
   <= 0
 con4[2,0]-: - M[0,0] - M[1,0] - M[2,0] + B[0,0] + B[1,0] + B[2,0] <= 0
 con4[2,1]-: - M[0,1] - M[1,1] - M[2,1] + B[0,1] + B[1,1] + B[2,1] <= 0
 con4[2,2]-: - M[0,2] - M[1,2] - M[2,2] + B[0,2] + B[1,2] + B[2,2] <= 0
 con4[2,3]-: - M[0,3] - M[1,3] - M[2,3] + B[0,3] + B[1,3] + B[2,3] <= 0
 con4[2,4]-: - M[0,4] - M[1,4] - M[2,4] + B[0,4] + B[1,4] + B[2,4] <= 0
 con4[2,5]-: - M[0,5] - M[1,5] - M[2,5] + B[0,5] + B[1,5] + B[2,5] <= 0
 con4[2,6]-: - M[0,6] - M[1,6] - M[2,6] + B[0,6] + B[1,6] + B[2,6] <= 0
 con4[2,7]-: - M[0,7] - M[1,7] - M[2,7] + B[0,7] + B[1,7] + B[2,7] <= 0
 con4[2,8]-: - M[0,8] - M[1,8] - M[2,8] + B[0,8] + B[1,8] + B[2,8] <= 0
 con4[2,9]-: - M[0,9] - M[1,9] - M[2,9] + B[0,9] + B[1,9] + B[2,9] <= 0
 con4[2,10]-: - M[0,10] - M[1,10] - M[2,10] + B[0,10] + B[1,10] + B[2,10]
   <= 0
 con4[2,11]-: - M[0,11] - M[1,11] - M[2,11] + B[0,11] + B[1,11] + B[2,11]
   <= 0
 con5[0]-: N[0,0] + N[1,0] + N[2,0] - 1e+06 A[0] <= 0
 con5[1]-: N[0,1] + N[1,1] + N[2,1] - 1e+06 A[1] <= 0
 con5[2]-: N[0,2] + N[1,2] + N[2,2] - 1e+06 A[2] <= 0
 con5[3]-: N[0,3] + N[1,3] + N[2,3] - 1e+06 A[3] <= 0
 con5[4]-: N[0,4] + N[1,4] + N[2,4] - 1e+06 A[4] <= 0
 con5[5]-: N[0,5] + N[1,5] + N[2,5] - 1e+06 A[5] <= 0
 con5[6]-: N[0,6] + N[1,6] + N[2,6] - 1e+06 A[6] <= 0
 con5[7]-: N[0,7] + N[1,7] + N[2,7] - 1e+06 A[7] <= 0
 con5[8]-: N[0,8] + N[1,8] + N[2,8] - 1e+06 A[8] <= 0
 con5[9]-: N[0,9] + N[1,9] + N[2,9] - 1e+06 A[9] <= 0
 con5[10]-: N[0,10] + N[1,10] + N[2,10] - 1e+06 A[10] <= 0
 con5[11]-: N[0,11] + N[1,11] + N[2,11] - 1e+06 A[11] <= 0
Bounds
Binaries
 A[0] A[1] A[2] A[3] A[4] A[5] A[6] A[7] A[8] A[9] A[10] A[11]
Generals
 X[0,0] X[0,1] X[0,2] X[0,3] X[0,4] X[0,5] X[0,6] X[0,7] X[0,8] X[0,9]
 X[0,10] X[0,11] X[1,0] X[1,1] X[1,2] X[1,3] X[1,4] X[1,5] X[1,6] X[1,7]
 X[1,8] X[1,9] X[1,10] X[1,11] X[2,0] X[2,1] X[2,2] X[2,3] X[2,4] X[2,5]
 X[2,6] X[2,7] X[2,8] X[2,9] X[2,10] X[2,11] N[0,0] N[0,1] N[0,2] N[0,3]
 N[0,4] N[0,5] N[0,6] N[0,7] N[0,8] N[0,9] N[0,10] N[0,11] N[1,0] N[1,1]
 N[1,2] N[1,3] N[1,4] N[1,5] N[1,6] N[1,7] N[1,8] N[1,9] N[1,10] N[1,11]
 N[2,0] N[2,1] N[2,2] N[2,3] N[2,4] N[2,5] N[2,6] N[2,7] N[2,8] N[2,9]
 N[2,10] N[2,11] M[0,0] M[0,1] M[0,2] M[0,3] M[0,4] M[0,5] M[0,6] M[0,7]
 M[0,8] M[0,9] M[0,10] M[0,11] M[1,0] M[1,1] M[1,2] M[1,3] M[1,4] M[1,5]
 M[1,6] M[1,7] M[1,8] M[1,9] M[1,10] M[1,11] M[2,0] M[2,1] M[2,2] M[2,3]
 M[2,4] M[2,5] M[2,6] M[2,7] M[2,8] M[2,9] M[2,10] M[2,11] B[0,0] B[0,1]
 B[0,2] B[0,3] B[0,4] B[0,5] B[0,6] B[0,7] B[0,8] B[0,9] B[0,10] B[0,11]
 B[1,0] B[1,1] B[1,2] B[1,3] B[1,4] B[1,5] B[1,6] B[1,7] B[1,8] B[1,9]
 B[1,10] B[1,11] B[2,0] B[2,1] B[2,2] B[2,3] B[2,4] B[2,5] B[2,6] B[2,7]
 B[2,8] B[2,9] B[2,10] B[2,11]
End
